NAME: burma14
TYPE: TSP
COMMENT: 14-Staedte in Burma (Zaw Win)
DIMENSION: 14
EDGE_WEIGHT_TYPE: GEO
EDGE_WEIGHT_FORMAT: FUNCTION 
DISPLAY_DATA_TYPE: COORD_DISPLAY
NODE_COORD_SECTION
   1  16.47       96.10
   2  16.47       94.44
   3  20.09       92.54
   4  22.39       93.37
   5  25.23       97.24
   6  22.00       96.05
   7  20.47       97.02
   8  17.20       96.29
   9  16.30       97.38
  10  14.05       98.12
  11  16.53       97.38
  12  21.52       95.59
  13  19.41       97.13
  14  20.09       94.55
EOF

DEMAND_SECTION
 13 13

  1  2  3  4  5  6  7  8  9 10 11 12 13
  2  3  4  5  6  7  8  9 10 11 12 13 14

91
  1  2  3
  1  3  3
  1  4  3
  1  5  3
  1  6  3
  1  7  3
  1  8  3
  1  9  3
  1 10  3
  1 11  3
  1 12  3
  1 13  3
  1 14  3
  2  3  3
  2  4  3
  2  5  3
  2  6  3
  2  7  3
  2  8  3
  2  9  3
  2 10  3
  2 11  3
  2 12  3
  2 13  3
  2 14  3
  3  4  3
  3  5  3
  3  6  3
  3  7  3
  3  8  3
  3  9  3
  3 10  3
  3 11  3
  3 12  3
  3 13  3
  3 14  3
  4  5  3
  4  6  3
  4  7  3
  4  8  3
  4  9  3
  4 10  3
  4 11  3
  4 12  3
  4 13  3
  4 14  3
  5  6  3
  5  7  3
  5  8  3
  5  9  3
  5 10  3
  5 11  3
  5 12  3
  5 13  3
  5 14  3
  6  7  3
  6  8  3
  6  9  3
  6 10  3
  6 11  3
  6 12  3
  6 13  3
  6 14  3
  7  8  3
  7  9  3
  7 10  3
  7 11  3
  7 12  3
  7 13  3
  7 14  3
  8  9  3
  8 10  3
  8 11  3
  8 12  3
  8 13  3
  8 14  3
  9 10  3
  9 11  3
  9 12  3
  9 13  3
  9 14  3
 10 11  3
 10 12  3
 10 13  3
 10 14  3
 11 12  3
 11 13  3
 11 14  3
 12 13  3
 12 14  3
 13 14  3
